p cnf 760
-20 -204
-21 -207
-22 -210
-23 -213
-24 -216
-25 -219
-26 -222
-27 -225
-28 -228
-29 -231
-30 -234
-31 -237
-32 -240
-33 -243
-34 -246
-35 -249
-36 -252
-37 -255
-38 -258
-39 -260
-40 -262
-41 -264
-42 -266
-43 -268
-44 -270
-45 -272
-46 -274
-47 -276
-48 -278
-49 -280
-50 -282
-51 -284
-52 -286
-53 -288
-54 -290
-55 -292
-56 -294
-57 -296
-58 297
-59 -33
-59 38
33 -38 59
-60 33
-60 -38
-33 38 60
-61 -59
-61 -60
59 60 61
-62 -36
-62 -61
36 61 62
-63 36
-63 61
-36 -61 63
-64 -62
-64 -63
62 63 64
-65 -37
-65 -64
37 64 65
-66 37
-66 64
-37 -64 66
-67 -65
-67 -66
65 66 67
-68 -1
-68 -2
1 2 68
-69 -3
-69 -4
3 4 69
-70 -5
-70 -6
5 6 70
-71 -7
-71 -8
7 8 71
-72 -9
-72 -10
9 10 72
-73 -11
-73 -12
11 12 73
-74 -13
-74 -14
13 14 74
-75 -15
-75 -16
15 16 75
-76 -17
-76 -18
17 18 76
-77 68
-77 69
-68 -69 77
-78 70
-78 71
-70 -71 78
-79 72
-79 73
-72 -73 79
-80 74
-80 75
-74 -75 80
-81 -19
-81 76
19 -76 81
-82 77
-82 78
-77 -78 82
-83 79
-83 80
-79 -80 83
-84 82
-84 83
-82 -83 84
-85 81
-85 84
-81 -84 85
-86 -39
-86 -40
39 40 86
-87 -41
-87 -42
41 42 87
-88 -43
-88 -44
43 44 88
-89 -45
-89 -46
45 46 89
-90 -47
-90 -48
47 48 90
-91 -49
-91 -50
49 50 91
-92 -51
-92 -52
51 52 92
-93 -53
-93 -54
53 54 93
-94 -55
-94 -56
55 56 94
-95 86
-95 87
-86 -87 95
-96 88
-96 89
-88 -89 96
-97 90
-97 91
-90 -91 97
-98 92
-98 93
-92 -93 98
-99 -57
-99 94
57 -94 99
-100 95
-100 96
-95 -96 100
-101 97
-101 98
-97 -98 101
-102 100
-102 101
-100 -101 102
-103 99
-103 102
-99 -102 103
-104 39
-104 -67
-39 67 104
-105 -39
-105 67
39 -67 105
-106 -104
-106 -105
104 105 106
-107 20
-107 40
-20 -40 107
-108 -20
-108 -40
20 40 108
-109 -107
-109 -108
107 108 109
-110 21
-110 41
-21 -41 110
-111 -21
-111 -41
21 41 111
-112 -110
-112 -111
110 111 112
-113 22
-113 42
-22 -42 113
-114 -22
-114 -42
22 42 114
-115 -113
-115 -114
113 114 115
-116 23
-116 43
-23 -43 116
-117 -23
-117 -43
23 43 117
-118 -116
-118 -117
116 117 118
-119 24
-119 44
-24 -44 119
-120 -24
-120 -44
24 44 120
-121 -119
-121 -120
119 120 121
-122 25
-122 45
-25 -45 122
-123 -25
-123 -45
25 45 123
-124 -122
-124 -123
122 123 124
-125 26
-125 46
-26 -46 125
-126 -26
-126 -46
26 46 126
-127 -125
-127 -126
125 126 127
-128 27
-128 47
-27 -47 128
-129 -27
-129 -47
27 47 129
-130 -128
-130 -129
128 129 130
-131 28
-131 48
-28 -48 131
-132 -28
-132 -48
28 48 132
-133 -131
-133 -132
131 132 133
-134 29
-134 49
-29 -49 134
-135 -29
-135 -49
29 49 135
-136 -134
-136 -135
134 135 136
-137 30
-137 50
-30 -50 137
-138 -30
-138 -50
30 50 138
-139 -137
-139 -138
137 138 139
-140 31
-140 51
-31 -51 140
-141 -31
-141 -51
31 51 141
-142 -140
-142 -141
140 141 142
-143 32
-143 52
-32 -52 143
-144 -32
-144 -52
32 52 144
-145 -143
-145 -144
143 144 145
-146 33
-146 53
-33 -53 146
-147 -33
-147 -53
33 53 147
-148 -146
-148 -147
146 147 148
-149 34
-149 54
-34 -54 149
-150 -34
-150 -54
34 54 150
-151 -149
-151 -150
149 150 151
-152 35
-152 55
-35 -55 152
-153 -35
-153 -55
35 55 153
-154 -152
-154 -153
152 153 154
-155 36
-155 56
-36 -56 155
-156 -36
-156 -56
36 56 156
-157 -155
-157 -156
155 156 157
-158 37
-158 57
-37 -57 158
-159 -37
-159 -57
37 57 159
-160 -158
-160 -159
158 159 160
-161 -106
-161 -109
106 109 161
-162 -112
-162 -115
112 115 162
-163 -118
-163 -121
118 121 163
-164 -124
-164 -127
124 127 164
-165 -130
-165 -133
130 133 165
-166 -136
-166 -139
136 139 166
-167 -142
-167 -145
142 145 167
-168 -148
-168 -151
148 151 168
-169 -154
-169 -157
154 157 169
-170 161
-170 162
-161 -162 170
-171 163
-171 164
-163 -164 171
-172 165
-172 166
-165 -166 172
-173 167
-173 168
-167 -168 173
-174 -160
-174 169
160 -169 174
-175 170
-175 171
-170 -171 175
-176 172
-176 173
-172 -173 176
-177 175
-177 176
-175 -176 177
-178 174
-178 177
-174 -177 178
-179 -103
-179 178
103 -178 179
-180 58
-180 179
-58 -179 180
-181 85
-181 180
-85 -180 181
-182 -20
-182 67
20 -67 182
-183 -21
-183 -22
21 22 183
-184 -23
-184 -24
23 24 184
-185 -25
-185 -26
25 26 185
-186 -27
-186 -28
27 28 186
-187 -29
-187 -30
29 30 187
-188 -31
-188 -32
31 32 188
-189 -33
-189 -34
33 34 189
-190 -35
-190 -36
35 36 190
-191 182
-191 183
-182 -183 191
-192 184
-192 185
-184 -185 192
-193 186
-193 187
-186 -187 193
-194 188
-194 189
-188 -189 194
-195 -37
-195 190
37 -190 195
-196 191
-196 192
-191 -192 196
-197 193
-197 194
-193 -194 197
-198 196
-198 197
-196 -197 198
-199 195
-199 198
-195 -198 199
-200 -103
-200 199
103 -199 200
-201 85
-201 -179
-85 179 201
-202 1
-202 -85
-1 85 202
-203 -67
-203 85
67 -85 203
-204 -202
-204 -203
202 203 204
-205 2
-205 -85
-2 85 205
-206 20
-206 85
-20 -85 206
-207 -205
-207 -206
205 206 207
-208 3
-208 -85
-3 85 208
-209 21
-209 85
-21 -85 209
-210 -208
-210 -209
208 209 210
-211 4
-211 -85
-4 85 211
-212 22
-212 85
-22 -85 212
-213 -211
-213 -212
211 212 213
-214 5
-214 -85
-5 85 214
-215 23
-215 85
-23 -85 215
-216 -214
-216 -215
214 215 216
-217 6
-217 -85
-6 85 217
-218 24
-218 85
-24 -85 218
-219 -217
-219 -218
217 218 219
-220 7
-220 -85
-7 85 220
-221 25
-221 85
-25 -85 221
-222 -220
-222 -221
220 221 222
-223 8
-223 -85
-8 85 223
-224 26
-224 85
-26 -85 224
-225 -223
-225 -224
223 224 225
-226 9
-226 -85
-9 85 226
-227 27
-227 85
-27 -85 227
-228 -226
-228 -227
226 227 228
-229 10
-229 -85
-10 85 229
-230 28
-230 85
-28 -85 230
-231 -229
-231 -230
229 230 231
-232 11
-232 -85
-11 85 232
-233 29
-233 85
-29 -85 233
-234 -232
-234 -233
232 233 234
-235 12
-235 -85
-12 85 235
-236 30
-236 85
-30 -85 236
-237 -235
-237 -236
235 236 237
-238 13
-238 -85
-13 85 238
-239 31
-239 85
-31 -85 239
-240 -238
-240 -239
238 239 240
-241 14
-241 -85
-14 85 241
-242 32
-242 85
-32 -85 242
-243 -241
-243 -242
241 242 243
-244 15
-244 -85
-15 85 244
-245 33
-245 85
-33 -85 245
-246 -244
-246 -245
244 245 246
-247 16
-247 -85
-16 85 247
-248 34
-248 85
-34 -85 248
-249 -247
-249 -248
247 248 249
-250 17
-250 -85
-17 85 250
-251 35
-251 85
-35 -85 251
-252 -250
-252 -251
250 251 252
-253 18
-253 -85
-18 85 253
-254 36
-254 85
-36 -85 254
-255 -253
-255 -254
253 254 255
-256 19
-256 -85
-19 85 256
-257 37
-257 85
-37 -85 257
-258 -256
-258 -257
256 257 258
-259 39
-259 85
-39 -85 259
-260 -202
-260 -259
202 259 260
-261 40
-261 85
-40 -85 261
-262 -205
-262 -261
205 261 262
-263 41
-263 85
-41 -85 263
-264 -208
-264 -263
208 263 264
-265 42
-265 85
-42 -85 265
-266 -211
-266 -265
211 265 266
-267 43
-267 85
-43 -85 267
-268 -214
-268 -267
214 267 268
-269 44
-269 85
-44 -85 269
-270 -217
-270 -269
217 269 270
-271 45
-271 85
-45 -85 271
-272 -220
-272 -271
220 271 272
-273 46
-273 85
-46 -85 273
-274 -223
-274 -273
223 273 274
-275 47
-275 85
-47 -85 275
-276 -226
-276 -275
226 275 276
-277 48
-277 85
-48 -85 277
-278 -229
-278 -277
229 277 278
-279 49
-279 85
-49 -85 279
-280 -232
-280 -279
232 279 280
-281 50
-281 85
-50 -85 281
-282 -235
-282 -281
235 281 282
-283 51
-283 85
-51 -85 283
-284 -238
-284 -283
238 283 284
-285 52
-285 85
-52 -85 285
-286 -241
-286 -285
241 285 286
-287 53
-287 85
-53 -85 287
-288 -244
-288 -287
244 287 288
-289 54
-289 85
-54 -85 289
-290 -247
-290 -289
247 289 290
-291 55
-291 85
-55 -85 291
-292 -250
-292 -291
250 291 292
-293 56
-293 85
-56 -85 293
-294 -253
-294 -293
253 293 294
-295 57
-295 85
-57 -85 295
-296 -256
-296 -295
256 295 296
-297 -58
-297 201
58 -201 297
-298 -181
-298 -200
181 200 298
-298
